60
2 0 8
3 2 6
4 3 2
5 0 8
5 1 9
6 0 7
6 1 11
6 4 9
6 5 8
7 0 3
7 1 10
7 3 7
7 4 11
7 5 10
7 6 7
8 1 10
8 2 3
8 5 11
8 7 3
9 0 5
9 1 5
9 5 4
9 6 4
9 7 9
10 2 7
10 3 7
10 5 9
10 8 6
11 2 6
11 7 10
11 8 11
11 9 3
11 10 5
12 0 10
12 1 8
12 2 8
12 3 9
12 4 6
12 7 7
12 8 3
12 9 5
12 10 3
12 11 3
13 0 4
13 1 7
13 4 1
13 5 5
13 6 3
13 9 3
14 2 8
14 3 7
14 4 2
14 7 7
14 8 8
14 10 2
14 11 3
14 12 4
15 0 1
15 4 3
15 5 2
15 9 4
15 10 8
15 13 5
15 14 5
16 1 3
16 2 9
16 3 11
16 7 11
16 9 8
16 12 9
16 13 10
17 1 1
17 2 4
17 3 7
17 6 6
17 9 7
17 11 10
17 13 8
17 14 7
17 15 8
17 16 6
18 0 7
18 1 4
18 5 9
18 6 10
18 7 8
18 8 1
18 11 9
18 12 1
18 16 11
19 2 11
19 3 7
19 4 4
19 5 7
19 11 6
19 12 9
19 14 11
19 15 3
19 17 10
19 18 9
20 3 6
20 6 9
20 7 7
20 12 4
20 14 3
20 15 1
20 17 4
20 19 4
21 2 6
21 3 9
21 6 6
21 7 10
21 16 8
21 18 10
21 19 9
22 0 4
22 1 3
22 2 8
22 8 4
22 11 10
22 12 11
22 13 11
22 14 10
22 15 7
22 16 9
22 17 4
22 20 9
22 21 1
23 0 7
23 1 4
23 2 4
23 3 4
23 4 10
23 9 1
23 10 9
23 11 1
23 12 10
23 13 7
23 14 1
23 15 9
23 16 11
23 17 4
23 18 3
23 19 7
24 2 7
24 4 11
24 12 9
24 14 4
24 16 3
24 17 7
24 20 10
24 21 4
24 22 4
25 0 6
25 9 1
25 14 1
25 15 9
25 19 11
25 22 8
25 23 4
25 24 11
26 0 10
26 1 8
26 4 5
26 6 1
26 8 4
26 9 9
26 11 3
26 12 2
26 14 6
26 18 10
26 19 6
26 22 8
26 23 6
27 0 7
27 2 5
27 6 4
27 7 7
27 11 9
27 12 7
27 13 11
27 15 3
27 17 5
27 24 1
27 25 3
27 26 9
28 2 8
28 3 10
28 5 10
28 6 8
28 7 9
28 8 11
28 9 9
28 16 5
28 17 4
28 18 11
28 19 6
28 20 6
28 25 7
28 26 10
28 27 6
29 1 9
29 3 4
29 6 7
29 7 8
29 9 5
29 10 6
29 12 2
29 13 6
29 18 8
29 19 9
29 20 9
29 22 4
29 24 10
29 28 1
30 0 10
30 2 2
30 3 1
30 4 3
30 5 2
30 6 8
30 7 7
30 8 7
30 9 2
30 11 7
30 12 6
30 15 6
30 18 2
30 20 10
30 21 4
30 26 4
31 6 1
31 8 7
31 9 3
31 10 3
31 11 9
31 12 5
31 14 1
31 15 5
31 17 9
31 21 4
31 23 2
31 26 2
31 27 5
31 30 4
32 0 3
32 1 9
32 2 10
32 4 4
32 12 5
32 13 6
32 14 2
32 19 11
32 21 5
32 22 1
32 25 6
32 26 9
32 28 11
32 29 6
32 31 8
33 2 2
33 3 11
33 4 1
33 6 5
33 7 4
33 8 1
33 10 5
33 13 1
33 14 1
33 15 5
33 16 2
33 19 4
33 20 6
33 22 9
33 23 10
33 24 11
33 26 6
33 28 2
33 30 3
33 31 10
34 2 7
34 4 4
34 12 2
34 16 9
34 17 9
34 18 3
34 20 11
34 21 2
34 22 7
34 23 8
34 24 11
34 26 10
34 29 9
35 0 7
35 1 10
35 2 11
35 6 3
35 8 6
35 9 10
35 11 11
35 12 3
35 13 1
35 14 5
35 16 8
35 18 3
35 19 1
35 23 5
35 25 5
35 28 7
35 31 4
35 32 3
35 33 4
35 34 8
36 0 2
36 5 2
36 7 1
36 8 2
36 9 5
36 10 4
36 11 2
36 15 8
36 16 6
36 17 9
36 19 11
36 24 6
36 25 8
36 26 1
36 27 3
36 30 4
36 32 9
36 33 2
36 34 8
36 35 8
37 4 2
37 8 1
37 10 4
37 11 2
37 12 10
37 13 2
37 14 11
37 16 7
37 17 1
37 21 8
37 25 8
37 26 5
37 29 5
37 30 6
37 31 11
37 33 1
37 35 3
38 1 8
38 2 10
38 3 8
38 6 3
38 7 4
38 8 3
38 11 11
38 12 6
38 13 6
38 15 10
38 17 7
38 18 5
38 19 2
38 20 9
38 21 11
38 22 6
38 26 1
38 27 7
38 33 5
38 36 11
38 37 8
39 1 11
39 4 6
39 9 11
39 14 4
39 15 8
39 17 5
39 19 3
39 21 9
39 23 7
39 24 10
39 30 11
39 32 3
39 33 5
39 38 8
40 6 7
40 7 9
40 14 3
40 16 1
40 17 3
40 19 1
40 20 2
40 21 8
40 22 11
40 25 10
40 29 10
40 33 8
40 35 1
40 36 1
40 37 10
40 38 8
41 0 2
41 2 7
41 6 6
41 8 6
41 9 9
41 10 7
41 12 9
41 13 2
41 15 6
41 20 7
41 23 11
41 24 5
41 27 11
41 29 4
41 30 5
41 32 6
41 36 6
41 37 5
41 38 5
41 39 3
41 40 5
42 0 10
42 2 5
42 3 10
42 4 8
42 8 7
42 9 1
42 11 7
42 12 4
42 13 8
42 15 8
42 16 9
42 18 11
42 19 7
42 20 8
42 23 5
42 27 10
42 28 3
42 33 2
42 34 3
42 36 2
42 37 5
42 38 2
42 40 5
43 0 2
43 3 4
43 6 3
43 7 2
43 8 7
43 9 6
43 10 10
43 11 1
43 12 10
43 15 3
43 17 3
43 19 11
43 21 9
43 28 9
43 32 2
43 34 8
43 36 11
43 39 10
43 40 10
43 41 2
43 42 7
44 1 10
44 6 1
44 8 6
44 9 11
44 11 5
44 12 4
44 14 10
44 16 4
44 17 2
44 18 10
44 20 4
44 21 5
44 23 5
44 32 4
44 33 1
44 34 4
44 35 5
44 38 3
44 40 6
44 42 2
44 43 2
45 1 2
45 2 2
45 3 1
45 4 1
45 5 8
45 8 5
45 9 11
45 10 3
45 11 6
45 12 3
45 13 3
45 14 11
45 20 1
45 21 10
45 22 11
45 23 9
45 29 9
45 31 5
45 32 3
45 34 10
45 36 8
45 37 2
45 41 9
45 42 9
45 43 1
45 44 4
46 2 9
46 3 3
46 4 4
46 5 6
46 6 6
46 8 2
46 9 10
46 11 6
46 12 2
46 13 10
46 15 10
46 17 2
46 19 4
46 20 4
46 21 1
46 22 7
46 25 10
46 29 10
46 30 8
46 31 6
46 33 8
46 34 7
46 35 8
46 37 4
46 38 11
46 40 6
46 41 10
46 43 2
46 45 2
47 2 7
47 3 6
47 4 11
47 5 9
47 6 2
47 10 2
47 13 8
47 15 7
47 19 9
47 21 1
47 23 5
47 25 10
47 26 9
47 29 11
47 31 6
47 32 8
47 34 9
47 35 4
47 40 5
47 45 4
48 0 7
48 1 3
48 3 11
48 4 4
48 6 8
48 7 3
48 9 1
48 11 11
48 13 9
48 14 4
48 15 11
48 17 1
48 22 11
48 23 4
48 25 11
48 29 8
48 30 3
48 31 3
48 32 4
48 34 8
48 41 9
48 44 4
48 45 9
48 46 8
49 0 1
49 4 11
49 6 10
49 9 2
49 10 5
49 12 8
49 14 7
49 15 8
49 16 4
49 19 10
49 21 6
49 24 11
49 25 6
49 27 10
49 30 10
49 31 5
49 32 7
49 33 9
49 34 6
49 35 1
49 36 10
49 39 10
49 40 8
49 46 9
49 47 5
50 0 10
50 1 2
50 6 1
50 8 11
50 9 1
50 10 10
50 11 4
50 22 9
50 25 3
50 27 3
50 28 2
50 30 3
50 32 8
50 33 7
50 38 8
50 39 1
50 42 1
50 43 6
50 47 4
50 48 3
50 49 11
51 1 2
51 3 7
51 4 3
51 5 1
51 8 1
51 13 9
51 15 7
51 17 1
51 20 6
51 24 4
51 25 6
51 26 6
51 29 2
51 31 4
51 32 6
51 33 3
51 34 10
51 35 6
51 38 2
51 45 4
51 46 1
51 49 6
52 0 2
52 4 11
52 5 6
52 12 9
52 13 4
52 15 11
52 17 1
52 19 8
52 20 11
52 21 4
52 23 9
52 24 5
52 30 10
52 32 5
52 33 6
52 37 7
52 39 4
52 44 4
52 47 6
52 49 4
52 50 5
52 51 9
53 0 1
53 1 6
53 2 2
53 3 5
53 5 3
53 7 3
53 8 1
53 9 8
53 10 9
53 11 11
53 12 1
53 17 3
53 19 8
53 20 8
53 22 1
53 23 7
53 25 4
53 27 1
53 28 3
53 29 11
53 30 2
53 32 11
53 33 8
53 34 7
53 35 2
53 37 8
53 38 11
53 41 2
53 42 2
53 44 9
53 45 3
53 46 9
53 50 5
53 52 10
54 8 3
54 9 3
54 10 8
54 12 11
54 13 10
54 15 1
54 16 10
54 17 1
54 21 2
54 23 10
54 25 5
54 27 7
54 28 3
54 30 7
54 31 5
54 36 6
54 38 7
54 42 1
54 45 2
54 46 9
54 47 10
54 50 3
54 51 1
54 52 5
55 2 3
55 4 4
55 7 6
55 8 11
55 12 4
55 13 7
55 15 5
55 16 3
55 20 7
55 21 5
55 27 9
55 28 10
55 29 6
55 31 3
55 32 2
55 33 2
55 36 4
55 37 5
55 38 11
55 39 6
55 42 5
55 43 5
55 45 9
55 47 6
55 48 1
55 50 2
55 51 3
55 52 9
55 54 6
56 0 9
56 3 3
56 4 5
56 6 7
56 7 7
56 9 6
56 10 8
56 13 8
56 15 11
56 16 11
56 17 2
56 19 10
56 20 10
56 22 1
56 23 2
56 29 11
56 30 8
56 32 11
56 33 11
56 34 2
56 37 7
56 38 4
56 41 2
56 42 1
56 43 7
56 44 3
56 50 8
56 52 2
56 55 11
57 0 7
57 3 8
57 5 2
57 8 3
57 9 7
57 11 1
57 13 10
57 16 9
57 17 4
57 18 6
57 23 1
57 26 1
57 28 8
57 29 1
57 30 8
57 32 6
57 36 4
57 37 1
57 38 4
57 39 6
57 41 6
57 43 4
57 45 10
57 47 6
57 48 6
57 54 9
58 2 1
58 4 5
58 8 7
58 9 11
58 11 3
58 12 6
58 15 9
58 18 3
58 19 1
58 21 9
58 22 3
58 23 3
58 24 4
58 25 5
58 26 4
58 27 6
58 30 4
58 31 2
58 32 9
58 34 5
58 35 8
58 36 11
58 40 1
58 41 7
58 42 3
58 45 4
58 48 8
58 49 8
58 55 9
58 56 6
59 0 9
59 2 10
59 3 7
59 4 9
59 5 1
59 8 5
59 12 2
59 13 1
59 15 11
59 18 8
59 19 3
59 20 7
59 21 4
59 24 4
59 26 2
59 27 8
59 29 2
59 30 3
59 32 11
59 33 10
59 34 1
59 35 7
59 36 4
59 37 3
59 39 8
59 41 5
59 42 11
59 43 6
59 46 9
59 47 11
59 49 4
59 50 11
59 53 2
59 54 10
59 55 7
